NAME : LPS-n27-m33
COMMENT : (Lartu-Peter-Santi Plot, instance 9633 out of 39200. 27 customers.)
TYPE : CVRP
DIMENSION : 27
EDGE_WEIGHT_TYPE : EUC_2D
CAPACITY : 143
NODE_COORD_SECTION
 1 45 44
 2 89 42
 3 21 99
 4 7 98
 5 57 63
 6 39 19
 7 38 89
 8 18 57
 9 67 10
 10 98 73
 11 30 47
 12 30 12
 13 14 27
 14 22 12
 15 16 94
 16 68 85
 17 75 75
 18 84 96
 19 94 32
 20 53 37
 21 95 35
 22 89 84
 23 63 53
 24 22 53
 25 65 73
 26 48 71
 27 19 33
DEMAND_SECTION
1 0
2 21
3 8
4 115
5 54
6 71
7 26
8 2
9 55
10 5
11 124
12 67
13 41
14 87
15 52
16 34
17 120
18 37
19 108
20 2
21 55
22 130
23 33
24 39
25 117
26 1
27 111
DEPOT_SECTION
 1
 -1
EOF
